c turning on binary mode checking
c parsing input formula with 259840 variables and 1039934 clauses
c finished parsing, read 3387636 bytes from proof file
c detected empty clause; start verification via backward checking
c 5769 of 1039934 clauses in core                            
c 1898 of 126723 lemmas in core using 48682 resolution steps
c 0 RAT lemmas in core; 203 redundant literals in core lemmas
s VERIFIED
c verification time: 1.334 seconds
